; benchmark generated from python API
(set-info :status unknown)
(declare-fun x_epoch () Int)
(declare-fun y_epoch () Int)
(declare-fun x_shift_period_51120_epoch () Int)
(declare-fun x_year () Int)
(declare-fun x_month () Int)
(declare-fun x_day () Int)
(declare-fun x_shift_period_51120_year () Int)
(declare-fun x_shift_period_51120_month () Int)
(declare-fun x_shift_period_51120_day () Int)
(declare-fun x_shift_period_51120_shift_period_58565_epoch () Int)
(declare-fun x_shift_period_51120_shift_period_58565_year () Int)
(declare-fun x_shift_period_51120_shift_period_58565_month () Int)
(declare-fun x_shift_period_51120_shift_period_58565_day () Int)
(assert
 (>= x_epoch (- 36584)))
(assert
 (<= x_epoch 36829))
(assert
 (>= y_epoch (- 36584)))
(assert
 (<= y_epoch 36829))
(assert
 (>= x_epoch 8492))
(assert
 (>= x_shift_period_51120_epoch (- 36584)))
(assert
 (<= x_shift_period_51120_epoch 36829))
(assert
 (let (($x3195 (<= x_year 2100)))
 (let (($x3177 (>= x_year 1900)))
 (let (($x2872 (= x_month 11)))
 (let (($x815 (= x_month 9)))
 (let (($x3917 (= x_month 6)))
 (let (($x376 (= x_month 4)))
 (let ((?x2278 (ite (or $x376 $x3917 $x815 $x2872) 30 31)))
 (let (($x3245 (= (mod x_year 4) 0)))
 (let (($x1838 (= (mod x_year 100) 0)))
 (let (($x1098 (= (mod x_year 400) 0)))
 (let (($x1123 (ite $x1098 true (ite $x1838 false $x3245))))
 (let (($x2885 (= x_month 2)))
 (let ((?x1225 (ite $x2885 (ite $x1123 29 28) ?x2278)))
 (let (($x4162 (>= x_day 1)))
 (let (($x4286 (<= x_month 12)))
 (let (($x948 (>= x_month 1)))
 (and $x948 $x4286 $x4162 (<= x_day ?x1225) $x3177 $x3195))))))))))))))))))
(assert
 (let (($x29 (or (and (= (mod 2000 4) 0) (and (distinct (mod 2000 100) 0) true)) (= (mod 2000 400) 0))))
 (let ((?x36 (ite (= 3 2) (ite $x29 31 31) (ite (= 3 1) (ite $x29 0 0) 0))))
 (let ((?x40 (ite $x29 60 59)))
 (let ((?x41 (ite (= 3 3) ?x40 ?x36)))
 (let ((?x46 (ite (= 3 4) (ite $x29 91 90) ?x41)))
 (let ((?x52 (ite (= 3 5) (ite $x29 121 120) ?x46)))
 (let ((?x58 (ite (= 3 6) (ite $x29 152 151) ?x52)))
 (let ((?x64 (ite (= 3 7) (ite $x29 182 181) ?x58)))
 (let ((?x70 (ite (= 3 8) (ite $x29 213 212) ?x64)))
 (let ((?x76 (ite (= 3 9) (ite $x29 244 243) ?x70)))
 (let ((?x82 (ite (= 3 10) (ite $x29 274 273) ?x76)))
 (let ((?x88 (ite (= 3 11) (ite $x29 305 304) ?x82)))
 (let ((?x16 (- (+ (* 365 (- 2000 1)) (div (- 2000 1) 4)) (div (- 2000 1) 100))))
 (let ((?x95 (+ (+ ?x16 (div (- 2000 1) 400)) (ite (= 3 12) (ite $x29 335 334) ?x88))))
 (let ((?x97 (+ ?x95 (- 1 1))))
 (let (($x3245 (= (mod x_year 4) 0)))
 (let (($x1838 (= (mod x_year 100) 0)))
 (let (($x1098 (= (mod x_year 400) 0)))
 (let (($x1123 (ite $x1098 true (ite $x1838 false $x3245))))
 (let (($x508 (= 2 x_month)))
 (let ((?x293 (ite $x508 (ite $x1123 31 31) (ite (= 1 x_month) (ite $x1123 0 0) 0))))
 (let (($x467 (= 3 x_month)))
 (let (($x906 (= 4 x_month)))
 (let ((?x2351 (ite $x906 (ite $x1123 91 90) (ite $x467 (ite $x1123 60 59) ?x293))))
 (let (($x3816 (= 5 x_month)))
 (let (($x3012 (= 6 x_month)))
 (let ((?x897 (ite $x3012 (ite $x1123 152 151) (ite $x3816 (ite $x1123 121 120) ?x2351))))
 (let (($x1091 (= 7 x_month)))
 (let (($x1249 (= 8 x_month)))
 (let ((?x2575 (ite $x1249 (ite $x1123 213 212) (ite $x1091 (ite $x1123 182 181) ?x897))))
 (let (($x702 (= 9 x_month)))
 (let (($x3233 (= 10 x_month)))
 (let ((?x2065 (ite $x3233 (ite $x1123 274 273) (ite $x702 (ite $x1123 244 243) ?x2575))))
 (let (($x4166 (= 11 x_month)))
 (let (($x556 (= 12 x_month)))
 (let ((?x2109 (ite $x556 (ite $x1123 335 334) (ite $x4166 (ite $x1123 305 304) ?x2065))))
 (let ((?x545 (- (+ (* 365 (- x_year 1)) (div (- x_year 1) 4)) (div (- x_year 1) 100))))
 (let ((?x1789 (+ (+ (+ ?x545 (div (- x_year 1) 400)) ?x2109) (- x_day 1))))
 (= x_epoch (- ?x1789 ?x97)))))))))))))))))))))))))))))))))))))))))
(assert
 (let (($x2827 (<= x_shift_period_51120_year 2100)))
 (let (($x587 (>= x_shift_period_51120_year 1900)))
 (let (($x1015 (= x_shift_period_51120_month 11)))
 (let (($x3886 (= x_shift_period_51120_month 9)))
 (let (($x2024 (= x_shift_period_51120_month 6)))
 (let (($x3994 (= x_shift_period_51120_month 4)))
 (let ((?x1902 (ite (or $x3994 $x2024 $x3886 $x1015) 30 31)))
 (let (($x4275 (= (mod x_shift_period_51120_year 4) 0)))
 (let (($x3552 (= (mod x_shift_period_51120_year 100) 0)))
 (let (($x5285 (= (mod x_shift_period_51120_year 400) 0)))
 (let (($x594 (ite $x5285 true (ite $x3552 false $x4275))))
 (let (($x4823 (= x_shift_period_51120_month 2)))
 (let (($x4822 (>= x_shift_period_51120_day 1)))
 (let (($x3127 (<= x_shift_period_51120_month 12)))
 (let (($x1647 (>= x_shift_period_51120_month 1)))
 (and $x1647 $x3127 $x4822 (<= x_shift_period_51120_day (ite $x4823 (ite $x594 29 28) ?x1902)) $x587 $x2827)))))))))))))))))
(assert
 (let (($x29 (or (and (= (mod 2000 4) 0) (and (distinct (mod 2000 100) 0) true)) (= (mod 2000 400) 0))))
 (let ((?x36 (ite (= 3 2) (ite $x29 31 31) (ite (= 3 1) (ite $x29 0 0) 0))))
 (let ((?x40 (ite $x29 60 59)))
 (let ((?x41 (ite (= 3 3) ?x40 ?x36)))
 (let ((?x46 (ite (= 3 4) (ite $x29 91 90) ?x41)))
 (let ((?x52 (ite (= 3 5) (ite $x29 121 120) ?x46)))
 (let ((?x58 (ite (= 3 6) (ite $x29 152 151) ?x52)))
 (let ((?x64 (ite (= 3 7) (ite $x29 182 181) ?x58)))
 (let ((?x70 (ite (= 3 8) (ite $x29 213 212) ?x64)))
 (let ((?x76 (ite (= 3 9) (ite $x29 244 243) ?x70)))
 (let ((?x82 (ite (= 3 10) (ite $x29 274 273) ?x76)))
 (let ((?x88 (ite (= 3 11) (ite $x29 305 304) ?x82)))
 (let ((?x16 (- (+ (* 365 (- 2000 1)) (div (- 2000 1) 4)) (div (- 2000 1) 100))))
 (let ((?x95 (+ (+ ?x16 (div (- 2000 1) 400)) (ite (= 3 12) (ite $x29 335 334) ?x88))))
 (let ((?x97 (+ ?x95 (- 1 1))))
 (let (($x4275 (= (mod x_shift_period_51120_year 4) 0)))
 (let (($x3552 (= (mod x_shift_period_51120_year 100) 0)))
 (let (($x5285 (= (mod x_shift_period_51120_year 400) 0)))
 (let (($x594 (ite $x5285 true (ite $x3552 false $x4275))))
 (let ((?x3708 (ite (= 2 x_shift_period_51120_month) (ite $x594 31 31) (ite (= 1 x_shift_period_51120_month) (ite $x594 0 0) 0))))
 (let ((?x1803 (ite (= 4 x_shift_period_51120_month) (ite $x594 91 90) (ite (= 3 x_shift_period_51120_month) (ite $x594 60 59) ?x3708))))
 (let ((?x4573 (ite (= 6 x_shift_period_51120_month) (ite $x594 152 151) (ite (= 5 x_shift_period_51120_month) (ite $x594 121 120) ?x1803))))
 (let ((?x838 (ite (= 8 x_shift_period_51120_month) (ite $x594 213 212) (ite (= 7 x_shift_period_51120_month) (ite $x594 182 181) ?x4573))))
 (let ((?x2439 (ite (= 10 x_shift_period_51120_month) (ite $x594 274 273) (ite (= 9 x_shift_period_51120_month) (ite $x594 244 243) ?x838))))
 (let ((?x4480 (ite (= 12 x_shift_period_51120_month) (ite $x594 335 334) (ite (= 11 x_shift_period_51120_month) (ite $x594 305 304) ?x2439))))
 (let ((?x2411 (+ (* 365 (- x_shift_period_51120_year 1)) (div (- x_shift_period_51120_year 1) 4))))
 (let ((?x1913 (+ (- ?x2411 (div (- x_shift_period_51120_year 1) 100)) (div (- x_shift_period_51120_year 1) 400))))
 (= x_shift_period_51120_epoch (- (+ (+ ?x1913 ?x4480) (- x_shift_period_51120_day 1)) ?x97))))))))))))))))))))))))))))))
(assert
 (let ((?x2644 (* 12 x_year)))
 (let ((?x5020 (+ ?x2644 (- x_month 1))))
 (let ((?x5138 (+ ?x5020 1)))
 (let ((?x494 (div ?x5138 12)))
 (= x_shift_period_51120_year ?x494))))))
(assert
 (let ((?x1844 (+ (mod (+ (+ (* 12 x_year) (- x_month 1)) 1) 12) 1)))
 (= x_shift_period_51120_month ?x1844)))
(assert
 (let ((?x1844 (+ (mod (+ (+ (* 12 x_year) (- x_month 1)) 1) 12) 1)))
 (let ((?x3503 (ite (or (= ?x1844 4) (= ?x1844 6) (= ?x1844 9) (= ?x1844 11)) 30 31)))
 (let ((?x2644 (* 12 x_year)))
 (let ((?x5020 (+ ?x2644 (- x_month 1))))
 (let ((?x5138 (+ ?x5020 1)))
 (let ((?x494 (div ?x5138 12)))
 (let (($x5032 (ite (= (mod ?x494 400) 0) true (ite (= (mod ?x494 100) 0) false (= (mod ?x494 4) 0)))))
 (let ((?x3000 (ite (= ?x1844 2) (ite $x5032 29 28) ?x3503)))
 (let ((?x4907 (ite (<= x_day ?x3000) x_day ?x3000)))
 (let (($x2872 (= x_month 11)))
 (let (($x815 (= x_month 9)))
 (let (($x3917 (= x_month 6)))
 (let (($x376 (= x_month 4)))
 (let ((?x2278 (ite (or $x376 $x3917 $x815 $x2872) 30 31)))
 (let (($x3245 (= (mod x_year 4) 0)))
 (let (($x1838 (= (mod x_year 100) 0)))
 (let (($x1098 (= (mod x_year 400) 0)))
 (let (($x1123 (ite $x1098 true (ite $x1838 false $x3245))))
 (let (($x2885 (= x_month 2)))
 (let ((?x1225 (ite $x2885 (ite $x1123 29 28) ?x2278)))
 (let (($x1856 (= x_day ?x1225)))
 (let ((?x5129 (ite false (ite $x1856 ?x3000 ?x4907) ?x4907)))
 (= x_shift_period_51120_day ?x5129))))))))))))))))))))))))
(assert
 (>= x_shift_period_51120_shift_period_58565_epoch (- 36584)))
(assert
 (<= x_shift_period_51120_shift_period_58565_epoch 36829))
(assert
 (let (($x294 (<= x_shift_period_51120_shift_period_58565_year 2100)))
 (let (($x5233 (>= x_shift_period_51120_shift_period_58565_year 1900)))
 (let (($x4928 (= x_shift_period_51120_shift_period_58565_month 11)))
 (let (($x2238 (= x_shift_period_51120_shift_period_58565_month 9)))
 (let (($x2296 (= x_shift_period_51120_shift_period_58565_month 6)))
 (let (($x485 (= x_shift_period_51120_shift_period_58565_month 4)))
 (let ((?x2681 (ite (or $x485 $x2296 $x2238 $x4928) 30 31)))
 (let (($x1020 (= (mod x_shift_period_51120_shift_period_58565_year 4) 0)))
 (let (($x3989 (= (mod x_shift_period_51120_shift_period_58565_year 100) 0)))
 (let (($x2781 (= (mod x_shift_period_51120_shift_period_58565_year 400) 0)))
 (let (($x4394 (ite $x2781 true (ite $x3989 false $x1020))))
 (let (($x2514 (= x_shift_period_51120_shift_period_58565_month 2)))
 (let (($x3584 (<= x_shift_period_51120_shift_period_58565_day (ite $x2514 (ite $x4394 29 28) ?x2681))))
 (let (($x3134 (>= x_shift_period_51120_shift_period_58565_day 1)))
 (let (($x3086 (<= x_shift_period_51120_shift_period_58565_month 12)))
 (let (($x526 (>= x_shift_period_51120_shift_period_58565_month 1)))
 (and $x526 $x3086 $x3134 $x3584 $x5233 $x294))))))))))))))))))
(assert
 (let (($x29 (or (and (= (mod 2000 4) 0) (and (distinct (mod 2000 100) 0) true)) (= (mod 2000 400) 0))))
 (let ((?x36 (ite (= 3 2) (ite $x29 31 31) (ite (= 3 1) (ite $x29 0 0) 0))))
 (let ((?x40 (ite $x29 60 59)))
 (let ((?x41 (ite (= 3 3) ?x40 ?x36)))
 (let ((?x46 (ite (= 3 4) (ite $x29 91 90) ?x41)))
 (let ((?x52 (ite (= 3 5) (ite $x29 121 120) ?x46)))
 (let ((?x58 (ite (= 3 6) (ite $x29 152 151) ?x52)))
 (let ((?x64 (ite (= 3 7) (ite $x29 182 181) ?x58)))
 (let ((?x70 (ite (= 3 8) (ite $x29 213 212) ?x64)))
 (let ((?x76 (ite (= 3 9) (ite $x29 244 243) ?x70)))
 (let ((?x82 (ite (= 3 10) (ite $x29 274 273) ?x76)))
 (let ((?x88 (ite (= 3 11) (ite $x29 305 304) ?x82)))
 (let ((?x16 (- (+ (* 365 (- 2000 1)) (div (- 2000 1) 4)) (div (- 2000 1) 100))))
 (let ((?x95 (+ (+ ?x16 (div (- 2000 1) 400)) (ite (= 3 12) (ite $x29 335 334) ?x88))))
 (let ((?x97 (+ ?x95 (- 1 1))))
 (let (($x1020 (= (mod x_shift_period_51120_shift_period_58565_year 4) 0)))
 (let (($x3989 (= (mod x_shift_period_51120_shift_period_58565_year 100) 0)))
 (let (($x2781 (= (mod x_shift_period_51120_shift_period_58565_year 400) 0)))
 (let (($x4394 (ite $x2781 true (ite $x3989 false $x1020))))
 (let ((?x5123 (ite (= 1 x_shift_period_51120_shift_period_58565_month) (ite $x4394 0 0) 0)))
 (let ((?x2701 (ite (= 2 x_shift_period_51120_shift_period_58565_month) (ite $x4394 31 31) ?x5123)))
 (let ((?x3774 (ite (= 3 x_shift_period_51120_shift_period_58565_month) (ite $x4394 60 59) ?x2701)))
 (let ((?x5151 (ite (= 4 x_shift_period_51120_shift_period_58565_month) (ite $x4394 91 90) ?x3774)))
 (let ((?x2610 (ite (= 5 x_shift_period_51120_shift_period_58565_month) (ite $x4394 121 120) ?x5151)))
 (let ((?x4517 (ite (= 6 x_shift_period_51120_shift_period_58565_month) (ite $x4394 152 151) ?x2610)))
 (let ((?x887 (ite (= 7 x_shift_period_51120_shift_period_58565_month) (ite $x4394 182 181) ?x4517)))
 (let ((?x1346 (ite (= 8 x_shift_period_51120_shift_period_58565_month) (ite $x4394 213 212) ?x887)))
 (let ((?x2709 (ite (= 9 x_shift_period_51120_shift_period_58565_month) (ite $x4394 244 243) ?x1346)))
 (let ((?x988 (ite (= 10 x_shift_period_51120_shift_period_58565_month) (ite $x4394 274 273) ?x2709)))
 (let ((?x1842 (ite (= 11 x_shift_period_51120_shift_period_58565_month) (ite $x4394 305 304) ?x988)))
 (let ((?x4958 (ite (= 12 x_shift_period_51120_shift_period_58565_month) (ite $x4394 335 334) ?x1842)))
 (let ((?x863 (+ (* 365 (- x_shift_period_51120_shift_period_58565_year 1)) (div (- x_shift_period_51120_shift_period_58565_year 1) 4))))
 (let ((?x2723 (- ?x863 (div (- x_shift_period_51120_shift_period_58565_year 1) 100))))
 (let ((?x4147 (+ ?x2723 (div (- x_shift_period_51120_shift_period_58565_year 1) 400))))
 (let ((?x2135 (- (+ (+ ?x4147 ?x4958) (- x_shift_period_51120_shift_period_58565_day 1)) ?x97)))
 (= x_shift_period_51120_shift_period_58565_epoch ?x2135)))))))))))))))))))))))))))))))))))))
(assert
 (= x_shift_period_51120_shift_period_58565_epoch (+ x_shift_period_51120_epoch 15)))
(assert
 (= x_shift_period_51120_shift_period_58565_epoch y_epoch))
(assert
 (>= y_epoch 8492))
(check-sat)
